NAME          
OBJSENSE MIN
ROWS
 N  OBJ
 L  c1_2
 L  c2_1
 L  c3_1
 L  c4_1
 L  c5_1
 L  c6_1
 L  c7
 L  c8
 G  c1_1
 G  c2
 G  c3
 G  c4
 G  c5
 G  c6
 E  c1
COLUMNS
    c         OBJ       0
    x         c1_2      1
    x         c3_1      -1
    x         c4_1      2
    x         c5_1      1
    x         c1_1      1
    x         OBJ       1
    y         c1_2      -1
    y         c2_1      1
    y         c1_1      -1
    y         OBJ       -2
    z         c2_1      -1
    z         c3_1      1
    z         c4_1      -1
    z         c6_1      3
    z         c7        3
    z         c2        1
    z         c3        1
    z         c4        1
    z         c5        1
    z         c1        1
    z         OBJ       -1
RHS
    rhs       c1_2      3
    rhs       c2_1      -5
    rhs       c3_1      2
    rhs       c4_1      -3
    rhs       c5_1      0
    rhs       c6_1      0
    rhs       c7        3
    rhs       c8        3
    rhs       c1_1      7
    rhs       c2        0
    rhs       c3        0
    rhs       c4        0
    rhs       c5        -5
    rhs       c6        3
    rhs       c1        0
RANGES
BOUNDS
 FX bounds    c         0
 LO bounds    x         0
 PL bounds    x
 FR bounds    y
 FR bounds    z
ENDATA
